\Generated by Cardinal Operations

Minimize
   817.9255463225066 x_0_0 + 105.6112350953422 x_0_1 
   + 79.31904513590905 x_0_2 + 1381.930765790198 x_1_0 
   + 860.1008727906834 x_1_1 + 70.47476001639357 x_1_2 
   + 82.2352297947953 x_2_0 + 37.71703959065387 x_2_1 
   + 1388.478925825329 x_2_2 
Subject To
 demand_constraint: x_0_0 + x_1_0 + x_2_0 >= 21993
 x_0_1 + x_1_1 + x_2_1 >= 27237
 x_0_2 + x_1_2 + x_2_2 >= 22192
 capacity_constraint: x_0_0 + x_0_1 + x_0_2 <= 47868
 x_1_0 + x_1_1 + x_1_2 <= 28356
 x_2_0 + x_2_1 + x_2_2 <= 78401
END

